&control
  calculation='bands',
  prefix='final_scf',
  outdir='./out',
  restart_mode='from_scratch'
/
&system
  ibrav=0,
  nat=3,
  ntyp=2,
  ecutwfc=50,
  ecutrho=200,
  occupations='smearing',
  smearing='gaussian',
  degauss=0.02
/
&electrons
  conv_thr=1.0d-8
/
ATOMIC_SPECIES
 Li  6.94  li_pbe_v1.4.uspp.F.UPF
 S  32.06  s_pbe_v1.4.uspp.F.UPF

CELL_PARAMETERS angstrom
  5.7000000000  0.0000000000  0.0000000000
  0.0000000000  5.7000000000  0.0000000000
  0.0000000000  0.0000000000  5.7000000000

ATOMIC_POSITIONS crystal
  Li  0.2148959739  0.2148959739  0.2148959739
  Li  0.7851040261  0.7851040261  0.7851040261
  S  -0.0000000000  0.0000000000  0.0000000000

K_POINTS crystal
134
  0.00000000  0.00000000  0.00000000  1.0
  0.02500000  -0.02500000  0.02500000  1.0
  0.05000000  -0.05000000  0.05000000  1.0
  0.07500000  -0.07500000  0.07500000  1.0
  0.10000000  -0.10000000  0.10000000  1.0
  0.12500000  -0.12500000  0.12500000  1.0
  0.15000000  -0.15000000  0.15000000  1.0
  0.17500000  -0.17500000  0.17500000  1.0
  0.20000000  -0.20000000  0.20000000  1.0
  0.22500000  -0.22500000  0.22500000  1.0
  0.25000000  -0.25000000  0.25000000  1.0
  0.27500000  -0.27500000  0.27500000  1.0
  0.30000000  -0.30000000  0.30000000  1.0
  0.32500000  -0.32500000  0.32500000  1.0
  0.35000000  -0.35000000  0.35000000  1.0
  0.37500000  -0.37500000  0.37500000  1.0
  0.40000000  -0.40000000  0.40000000  1.0
  0.42500000  -0.42500000  0.42500000  1.0
  0.45000000  -0.45000000  0.45000000  1.0
  0.47500000  -0.47500000  0.47500000  1.0
  0.50000000  -0.50000000  0.50000000  1.0
  0.50000000  -0.50000000  0.50000000  1.0
  0.50000000  -0.50000000  0.50000000  1.0
  0.50000000  -0.50000000  0.50000000  1.0
  0.50000000  -0.45652174  0.50000000  1.0
  0.50000000  -0.41304348  0.50000000  1.0
  0.50000000  -0.36956522  0.50000000  1.0
  0.50000000  -0.32608696  0.50000000  1.0
  0.50000000  -0.28260870  0.50000000  1.0
  0.50000000  -0.23913043  0.50000000  1.0
  0.50000000  -0.19565217  0.50000000  1.0
  0.50000000  -0.15217391  0.50000000  1.0
  0.50000000  -0.10869565  0.50000000  1.0
  0.50000000  -0.06521739  0.50000000  1.0
  0.50000000  -0.02173913  0.50000000  1.0
  0.50000000  0.02173913  0.50000000  1.0
  0.50000000  0.06521739  0.50000000  1.0
  0.50000000  0.10869565  0.50000000  1.0
  0.50000000  0.15217391  0.50000000  1.0
  0.50000000  0.19565217  0.50000000  1.0
  0.50000000  0.23913043  0.50000000  1.0
  0.50000000  0.28260870  0.50000000  1.0
  0.50000000  0.32608696  0.50000000  1.0
  0.50000000  0.36956522  0.50000000  1.0
  0.50000000  0.41304348  0.50000000  1.0
  0.50000000  0.45652174  0.50000000  1.0
  0.50000000  0.50000000  0.50000000  1.0
  0.50000000  0.50000000  0.50000000  1.0
  0.47500000  0.47500000  0.47500000  1.0
  0.45000000  0.45000000  0.45000000  1.0
  0.42500000  0.42500000  0.42500000  1.0
  0.40000000  0.40000000  0.40000000  1.0
  0.37500000  0.37500000  0.37500000  1.0
  0.35000000  0.35000000  0.35000000  1.0
  0.32500000  0.32500000  0.32500000  1.0
  0.30000000  0.30000000  0.30000000  1.0
  0.27500000  0.27500000  0.27500000  1.0
  0.25000000  0.25000000  0.25000000  1.0
  0.22500000  0.22500000  0.22500000  1.0
  0.20000000  0.20000000  0.20000000  1.0
  0.17500000  0.17500000  0.17500000  1.0
  0.15000000  0.15000000  0.15000000  1.0
  0.12500000  0.12500000  0.12500000  1.0
  0.10000000  0.10000000  0.10000000  1.0
  0.07500000  0.07500000  0.07500000  1.0
  0.05000000  0.05000000  0.05000000  1.0
  0.02500000  0.02500000  0.02500000  1.0
  0.00000000  0.00000000  0.00000000  1.0
  0.00000000  0.00000000  0.00000000  1.0
  0.03125000  -0.03125000  -0.00000000  1.0
  0.06250000  -0.06250000  -0.00000000  1.0
  0.09375000  -0.09375000  -0.00000000  1.0
  0.12500000  -0.12500000  -0.00000000  1.0
  0.15625000  -0.15625000  -0.00000000  1.0
  0.18750000  -0.18750000  -0.00000000  1.0
  0.21875000  -0.21875000  0.00000000  1.0
  0.25000000  -0.25000000  -0.00000000  1.0
  0.28125000  -0.28125000  -0.00000000  1.0
  0.31250000  -0.31250000  -0.00000000  1.0
  0.34375000  -0.34375000  0.00000000  1.0
  0.37500000  -0.37500000  -0.00000000  1.0
  0.40625000  -0.40625000  -0.00000000  1.0
  0.43750000  -0.43750000  0.00000000  1.0
  0.46875000  -0.46875000  -0.00000000  1.0
  0.50000000  -0.50000000  -0.00000000  1.0
  0.50000000  -0.50000000  -0.00000000  1.0
  0.50000000  -0.50000000  -0.04166667  1.0
  0.50000000  -0.50000000  -0.08333333  1.0
  0.50000000  -0.50000000  -0.12500000  1.0
  0.50000000  -0.50000000  -0.16666667  1.0
  0.50000000  -0.50000000  -0.20833333  1.0
  0.50000000  -0.50000000  -0.25000000  1.0
  0.50000000  -0.50000000  -0.29166667  1.0
  0.50000000  -0.50000000  -0.33333333  1.0
  0.50000000  -0.50000000  -0.37500000  1.0
  0.50000000  -0.50000000  -0.41666667  1.0
  0.50000000  -0.50000000  -0.45833333  1.0
  0.50000000  -0.50000000  -0.50000000  1.0
  0.50000000  -0.50000000  -0.50000000  1.0
  0.50000000  -0.50000000  -0.50000000  1.0
  0.50000000  -0.50000000  -0.50000000  1.0
  0.50000000  -0.46875000  -0.46875000  1.0
  0.50000000  -0.43750000  -0.43750000  1.0
  0.50000000  -0.40625000  -0.40625000  1.0
  0.50000000  -0.37500000  -0.37500000  1.0
  0.50000000  -0.34375000  -0.34375000  1.0
  0.50000000  -0.31250000  -0.31250000  1.0
  0.50000000  -0.28125000  -0.28125000  1.0
  0.50000000  -0.25000000  -0.25000000  1.0
  0.50000000  -0.21875000  -0.21875000  1.0
  0.50000000  -0.18750000  -0.18750000  1.0
  0.50000000  -0.15625000  -0.15625000  1.0
  0.50000000  -0.12500000  -0.12500000  1.0
  0.50000000  -0.09375000  -0.09375000  1.0
  0.50000000  -0.06250000  -0.06250000  1.0
  0.50000000  -0.03125000  -0.03125000  1.0
  0.50000000  0.00000000  0.00000000  1.0
  0.50000000  0.00000000  0.00000000  1.0
  0.50000000  -0.03125000  0.03125000  1.0
  0.50000000  -0.06250000  0.06250000  1.0
  0.50000000  -0.09375000  0.09375000  1.0
  0.50000000  -0.12500000  0.12500000  1.0
  0.50000000  -0.15625000  0.15625000  1.0
  0.50000000  -0.18750000  0.18750000  1.0
  0.50000000  -0.21875000  0.21875000  1.0
  0.50000000  -0.25000000  0.25000000  1.0
  0.50000000  -0.28125000  0.28125000  1.0
  0.50000000  -0.31250000  0.31250000  1.0
  0.50000000  -0.34375000  0.34375000  1.0
  0.50000000  -0.37500000  0.37500000  1.0
  0.50000000  -0.40625000  0.40625000  1.0
  0.50000000  -0.43750000  0.43750000  1.0
  0.50000000  -0.46875000  0.46875000  1.0
  0.50000000  -0.50000000  0.50000000  1.0
